1651.11 0
0 53 59 46 37 34 47 48 38 56 62 0
0 4 3 5 10 1 2 9 8 16 0
0 49 45 54 32 58 30 67 44 29 68 64 0
0 63 57 55 61 0
0 73 74 18 20 0
0 19 22 70 72 71 69 51 52 0
0 25 66 65 0
0 12 15 6 75 7 21 0
0 11 23 17 26 24 14 0
0 27 13 50 60 28 41 39 40 33 31 36 42 43 35 0
